Normalized Data/p02_16_normalized_split0.vrp
NAME:p02_16_NORMALIZED_split
BEST_KNOWN: 0
COMMENT: 0
DIMENSION: 274
CAPACITY: 100
EDGE_WEIGHT_FORMAT: FUNCTION
EDGE_WEIGHT_TYPE: EXACT_2D
NODE_COORD_SECTION
1 0.00000 0.00000
2 44 23
3 44 23
4 44 23
5 44 23
6 44 23
7 44 23
8 24 -13
9 24 -13
10 24 -13
11 24 -13
12 24 -13
13 -15 -42
14 -15 -42
15 -15 -42
16 -15 -42
17 -15 -42
18 -23 38
19 -23 38
20 -23 38
21 -23 38
22 -23 38
23 44 5
24 44 5
25 44 5
26 44 5
27 44 5
28 44 5
29 20 -20
30 20 -20
31 20 -20
32 -45 -33
33 -45 -33
34 -45 -33
35 -45 -33
36 12 26
37 12 26
38 12 26
39 12 26
40 12 26
41 12 26
42 18 28
43 18 28
44 18 28
45 -7 -34
46 -7 -34
47 -7 -34
48 -7 -34
49 -7 -34
50 35 -24
51 35 -24
52 35 -24
53 35 -24
54 -48 38
55 -48 38
56 29 -13
57 29 -13
58 28 -43
59 28 -43
60 28 -43
61 28 -43
62 28 -43
63 28 -43
64 28 -43
65 42 -44
66 42 -44
67 18 -33
68 18 -33
69 18 -33
70 18 -33
71 18 -33
72 -15 -16
73 -15 -16
74 -15 -16
75 -15 -16
76 -15 -16
77 17 -4
78 17 -4
79 17 -4
80 17 -4
81 -16 8
82 -16 8
83 -16 8
84 -16 8
85 -48 -40
86 -48 -40
87 -48 -40
88 -48 -40
89 -14 38
90 -14 38
91 -6 -50
92 -6 -50
93 -6 -50
94 -6 -50
95 -6 -50
96 34 34
97 34 34
98 34 34
99 34 34
100 34 34
101 34 34
102 -32 19
103 -32 19
104 -32 19
105 -32 19
106 -17 -28
107 -17 -28
108 -17 31
109 -17 31
110 1 -33
111 1 -33
112 1 -33
113 1 -33
114 -3 10
115 -3 10
116 -3 10
117 -3 10
118 -3 10
119 11 -10
120 11 -10
121 11 -10
122 11 -10
123 11 -10
124 11 -10
125 -33 13
126 -33 13
127 -33 13
128 -24 8
129 -24 8
130 -24 8
131 25 49
132 25 49
133 25 49
134 25 49
135 43 -34
136 43 -34
137 -40 49
138 -40 49
139 -40 49
140 -40 49
141 -40 49
142 15 -13
143 15 -13
144 15 -13
145 15 -13
146 33 -3
147 33 -3
148 33 -3
149 33 -3
150 33 -3
151 -28 -35
152 -28 -35
153 -28 -35
154 47 44
155 47 44
156 47 44
157 -50 -25
158 -50 -25
159 -50 -25
160 -20 -15
161 -20 -15
162 -20 -15
163 -20 -15
164 -21 -49
165 -21 -49
166 -21 -49
167 -21 -49
168 0 18
169 0 18
170 0 18
171 -31 -28
172 -31 -28
173 -31 -28
174 -31 -28
175 -16 -32
176 -16 -32
177 -16 -32
178 -16 -32
179 34 -5
180 34 -5
181 0 31
182 0 31
183 21 -29
184 21 -29
185 21 -29
186 21 -29
187 39 -30
188 39 -30
189 -26 -28
190 -26 -28
191 -1 -36
192 -1 -36
193 -1 -36
194 -1 -36
195 -1 -36
196 49 50
197 49 50
198 49 50
199 49 50
200 49 50
201 -7 -5
202 -7 -5
203 -7 -5
204 -45 -38
205 -45 -38
206 -45 -38
207 -45 -38
208 8 44
209 8 44
210 8 44
211 -17 -22
212 -17 -22
213 -17 -22
214 42 26
215 42 26
216 42 26
217 42 26
218 42 26
219 -26 -20
220 -26 -20
221 -24 -2
222 -24 -2
223 -24 -2
224 -46 17
225 -46 17
226 -46 17
227 -38 -35
228 -38 -35
229 4 -13
230 4 -13
231 4 -13
232 4 -13
233 4 -13
234 4 -13
235 36 17
236 36 17
237 -49 29
238 -49 29
239 -49 29
240 49 -15
241 49 -15
242 49 -15
243 49 -15
244 -10 11
245 -10 11
246 -10 11
247 38 17
248 38 17
249 -34 42
250 -34 42
251 -34 42
252 -34 42
253 39 -21
254 39 -21
255 39 -21
256 39 -21
257 39 -21
258 39 -21
259 -30 49
260 -30 49
261 -30 49
262 50 -6
263 50 -6
264 50 -6
265 48 4
266 48 4
267 29 10
268 29 10
269 29 10
270 29 10
271 -39 10
272 -39 10
273 -39 10
274 -42 -22
DEMAND_SECTION
1 0
2 10
3 5
4 1
5 1
6 1
7 1
8 10
9 5
10 1
11 1
12 1
13 20
14 10
15 5
16 1
17 1
18 20
19 1
20 1
21 1
22 1
23 20
24 10
25 1
26 1
27 1
28 1
29 20
30 5
31 1
32 20
33 5
34 1
35 1
36 20
37 20
38 5
39 1
40 1
41 1
42 20
43 1
44 1
45 20
46 1
47 1
48 1
49 1
50 20
51 10
52 5
53 1
54 10
55 5
56 20
57 10
58 20
59 20
60 5
61 1
62 1
63 1
64 1
65 20
66 5
67 20
68 1
69 1
70 1
71 1
72 20
73 20
74 5
75 1
76 1
77 20
78 10
79 1
80 1
81 20
82 10
83 5
84 1
85 20
86 10
87 5
88 1
89 20
90 5
91 20
92 20
93 5
94 1
95 1
96 20
97 10
98 5
99 1
100 1
101 1
102 20
103 10
104 1
105 1
106 20
107 5
108 10
109 5
110 20
111 10
112 1
113 1
114 10
115 5
116 1
117 1
118 1
119 20
120 5
121 1
122 1
123 1
124 1
125 20
126 10
127 1
128 20
129 1
130 1
131 20
132 10
133 1
134 1
135 20
136 20
137 20
138 20
139 5
140 1
141 1
142 20
143 10
144 1
145 1
146 20
147 20
148 1
149 1
150 1
151 10
152 1
153 1
154 20
155 20
156 5
157 20
158 20
159 5
160 20
161 10
162 5
163 1
164 10
165 5
166 1
167 1
168 20
169 20
170 5
171 20
172 20
173 5
174 1
175 10
176 5
177 1
178 1
179 20
180 1
181 20
182 5
183 20
184 20
185 1
186 1
187 20
188 5
189 20
190 10
191 20
192 5
193 1
194 1
195 1
196 20
197 1
198 1
199 1
200 1
201 20
202 1
203 1
204 10
205 5
206 1
207 1
208 10
209 5
210 1
211 20
212 1
213 1
214 20
215 1
216 1
217 1
218 1
219 20
220 10
221 20
222 1
223 1
224 10
225 1
226 1
227 20
228 5
229 20
230 5
231 1
232 1
233 1
234 1
235 10
236 5
237 20
238 10
239 5
240 20
241 5
242 1
243 1
244 20
245 10
246 5
247 20
248 1
249 20
250 5
251 10
252 5
253 10
254 5
255 1
256 1
257 1
258 1
259 20
260 1
261 1
262 10
263 5
264 1
265 10
266 5
267 20
268 5
269 1
270 1
271 20
272 10
273 1
274 20
DEPOT_SECTION
1
-1
EOF