Normalized Data/p02_16_normalized_split0.sol
273 -8 56 55 179 178 147 145 146 148 149 -9 11 255 256 254 252 257 253 135 134 52 51 50 49 144 143 -12 16 14 15 13 164 165 163 166 177 175 174 176 106 105 -35 37 39 40 38 36 168 169 167 -41 43 42 195 196 199 198 197 155 154 153 99 98 100 97 -44 47 48 45 46 92 91 93 90 94 192 193 190 194 191 -53 54 136 140 137 138 139 259 258 260 107 108 -62 63 61 57 59 60 58 65 64 186 187 -75 72 73 74 71 212 211 210 162 159 160 -77 79 78 76 10 7 28 30 29 142 141 -81 83 80 82 243 245 244 -96 95 133 132 131 130 209 207 208 180 -101 102 103 104 126 124 125 129 127 128 -109 112 111 110 66 70 67 68 69 184 182 183 185 -116 113 114 115 117 -120 123 122 121 118 119 233 230 232 229 228 231 -151 152 150 86 84 87 85 204 206 205 203 227 226 172 173 -161 32 31 33 34 157 158 156 273 -181 89 88 20 17 19 21 18 248 250 251 249 -188 189 171 170 219 218 -200 202 201 -216 214 217 215 213 5 1 6 4 3 2 247 246 235 234 266 269 -221 222 220 270 272 271 224 225 223 238 237 236 -239 240 241 242 262 261 263 264 265 24 27 25 26 23 22 268 267 0 





OBJ=
2218.134
BEST_KNOWN=
0.000